nb_recettes = 100;
nb_ingredients = 94;
nb_moments = 3;
nb_nationalites = 10;


% Noms des ingredients:
% ['almond', 'apple', 'applesauce', 'apricot', 'baking mix', 'baking powder', 'baking soda', 'banana', 'basil', 'blackberry', 'brandy', 'bread', 'brown sugar', 'butter', 'buttermilk', 'cake', 'caramel', 'cardamom', 'celery', 'cereal', 'cheese', 'cherry', 'chill', 'chocolate', 'cinnamon', 'clove', 'cocoa powder', 'coconut', 'coffee', 'corn syrup', 'cornmeal', 'cornstarch', 'cream', 'cream cheese', 'dill', 'dough', 'egg', 'flour', 'food coloring', 'garlic', 'ginger', 'ham', 'honey', 'ice cream', 'lemon', 'lemon juice', 'lime', 'lime juice', 'margarine', 'marshmallow', 'milk', 'molasses', 'mozzarella', 'mushroom', 'nutmeg', 'oat', 'olive', 'onion', 'orange', 'parmesan', 'parsley', 'pastry', 'pecan', 'persimmon', 'pineapple', 'pistachio', 'prune', 'raisin', 'raspberry', 'rhubarb', 'rum', 'salt', 'sausage', 'shortening', 'sour cream', 'spice', 'strawberry', 'sugar', 'tapioca', 'tea', 'tomato', 'topping thawed', 'vanilla', 'vegetable oil', 'vinegar', 'walnut', 'water', 'whipped topping mix', 'whipping cream', 'white sugar', 'whole wheat', 'yeast', 'yogurt', 'zucchini']

ingredients = [|0, 0, 0, 0, 0, 0, 0, 6, 0, 0, 0, 0, 0, 0, 0, 0, 0, 0, 0, 0, 0, 0, 0, 0, 0, 0, 0, 0, 0, 0, 0, 0, 0, 1, 0, 0, 0, 0, 0, 0, 0, 0, 0, 0, 0, 0, 0, 0, 250, 0, 0, 0, 0, 0, 0, 0, 0, 0, 0, 0, 0, 0, 0, 0, 1, 0, 0, 0, 0, 0, 0, 0, 0, 0, 0, 0, 0, 500, 0, 0, 0, 1, 1, 0, 0, 62, 0, 0, 0, 0, 0, 0, 0, 0,
|0, 0, 0, 0, 0, 0, 0, 0, 0, 0, 0, 0, 0, 125, 0, 1, 0, 0, 0, 0, 0, 0, 0, 0, 0, 0, 0, 0, 0, 0, 0, 0, 0, 0, 0, 0, 0, 75, 0, 0, 0, 0, 0, 0, 0, 0, 0, 0, 0, 0, 250, 0, 0, 0, 0, 0, 0, 0, 0, 0, 0, 0, 0, 0, 0, 0, 0, 0, 0, 0, 0, 2, 0, 125, 0, 0, 0, 0, 0, 0, 0, 0, 5, 0, 0, 0, 0, 0, 0, 250, 0, 0, 0, 0,
|0, 0, 0, 0, 0, 0, 0, 0, 0, 0, 0, 0, 0, 125, 0, 0, 0, 0, 0, 0, 0, 0, 0, 0, 0, 0, 0, 0, 0, 0, 0, 0, 0, 1, 0, 0, 0, 312, 0, 0, 0, 0, 0, 0, 0, 0, 0, 0, 0, 0, 750, 0, 0, 0, 0, 0, 0, 0, 0, 0, 0, 0, 0, 0, 0, 2, 0, 0, 0, 0, 0, 0, 0, 0, 0, 0, 0, 250, 0, 0, 0, 1, 0, 0, 0, 188, 0, 0, 0, 0, 0, 0, 0, 0,
|0, 0, 0, 0, 0, 5, 0, 0, 0, 0, 0, 0, 0, 312, 0, 0, 0, 0, 0, 0, 0, 0, 0, 0, 0, 0, 208, 0, 0, 0, 0, 0, 0, 0, 0, 0, 4, 375, 0, 0, 0, 0, 0, 0, 0, 0, 0, 0, 0, 1, 125, 0, 0, 0, 0, 0, 0, 0, 0, 0, 0, 0, 0, 0, 0, 0, 0, 0, 0, 0, 0, 2, 0, 0, 0, 0, 0, 1250, 0, 0, 0, 0, 10, 0, 0, 375, 0, 0, 0, 500, 0, 0, 0, 0,
|0, 0, 0, 0, 0, 0, 4, 0, 0, 0, 0, 0, 0, 0, 0, 0, 0, 0, 0, 0, 0, 0, 0, 0, 2, 0, 0, 0, 0, 0, 0, 0, 0, 0, 0, 0, 1, 375, 0, 0, 2, 0, 0, 0, 0, 0, 0, 0, 0, 0, 0, 125, 0, 0, 0, 0, 0, 0, 0, 0, 0, 0, 0, 0, 0, 0, 0, 0, 0, 0, 0, 4, 0, 125, 0, 0, 0, 0, 0, 0, 0, 0, 0, 0, 0, 0, 125, 0, 0, 125, 0, 0, 0, 0,
|0, 0, 0, 0, 0, 0, 5, 0, 0, 0, 0, 0, 0, 625, 438, 0, 0, 0, 0, 0, 0, 0, 0, 0, 5, 0, 0, 0, 0, 8, 0, 0, 0, 0, 0, 0, 3, 500, 0, 0, 0, 0, 0, 0, 0, 0, 0, 0, 0, 0, 0, 0, 0, 0, 5, 0, 0, 0, 0, 0, 0, 0, 375, 0, 0, 0, 250, 0, 0, 0, 0, 5, 0, 0, 0, 5, 0, 0, 0, 0, 0, 0, 16, 250, 0, 0, 0, 0, 0, 750, 0, 0, 0, 0,
|0, 0, 0, 0, 0, 15, 0, 0, 0, 0, 5, 0, 0, 375, 0, 0, 0, 0, 0, 0, 0, 0, 0, 0, 0, 0, 0, 125, 0, 0, 0, 0, 0, 0, 0, 0, 16, 812, 0, 0, 0, 0, 0, 0, 0, 0, 0, 0, 0, 0, 250, 0, 0, 0, 0, 0, 0, 0, 0, 0, 0, 0, 250, 0, 0, 0, 0, 250, 0, 0, 0, 4, 0, 0, 0, 0, 0, 0, 0, 0, 0, 0, 5, 0, 0, 0, 125, 0, 0, 812, 0, 0, 0, 0,
|0, 0, 0, 0, 0, 0, 0, 0, 0, 0, 0, 0, 0, 62, 0, 1, 0, 0, 0, 0, 0, 0, 0, 0, 0, 0, 0, 0, 0, 0, 0, 0, 0, 0, 0, 0, 0, 0, 4, 0, 0, 0, 62, 0, 0, 0, 0, 0, 0, 0, 0, 0, 0, 0, 0, 0, 0, 0, 0, 0, 0, 0, 0, 0, 0, 0, 0, 0, 0, 0, 0, 0, 0, 0, 0, 0, 372, 500, 0, 0, 0, 0, 0, 0, 0, 0, 0, 0, 0, 0, 0, 0, 0, 0,
|0, 0, 0, 0, 0, 0, 0, 0, 0, 0, 0, 0, 420, 62, 0, 0, 0, 0, 0, 0, 0, 0, 0, 0, 0, 0, 0, 0, 0, 0, 0, 0, 0, 2, 0, 0, 3, 0, 0, 0, 0, 250, 0, 0, 0, 0, 0, 0, 0, 0, 0, 0, 0, 0, 0, 0, 0, 0, 0, 0, 0, 0, 167, 0, 0, 0, 0, 0, 0, 0, 258, 0, 0, 0, 438, 0, 0, 0, 0, 16, 0, 0, 5, 0, 0, 0, 0, 0, 0, 0, 0, 0, 0, 0,
|0, 0, 0, 0, 0, 0, 0, 0, 0, 0, 0, 750, 0, 0, 0, 0, 0, 0, 0, 0, 0, 0, 0, 0, 0, 0, 0, 0, 0, 0, 0, 0, 0, 0, 0, 0, 0, 0, 0, 0, 0, 0, 30, 0, 0, 0, 0, 0, 30, 0, 22, 0, 0, 0, 0, 125, 0, 0, 0, 0, 0, 0, 0, 0, 0, 0, 0, 0, 0, 0, 0, 8, 0, 0, 0, 0, 0, 0, 0, 0, 0, 0, 0, 0, 0, 0, 312, 0, 0, 0, 0, 15, 0, 0,
|0, 0, 250, 0, 0, 15, 0, 0, 0, 0, 0, 0, 125, 0, 0, 0, 0, 0, 0, 0, 0, 0, 0, 0, 5, 0, 0, 0, 0, 0, 0, 0, 2, 0, 0, 0, 12, 438, 0, 0, 0, 0, 0, 0, 0, 0, 0, 0, 0, 0, 0, 0, 0, 0, 0, 0, 0, 0, 0, 0, 0, 0, 0, 0, 0, 0, 0, 0, 0, 0, 0, 5, 0, 0, 0, 0, 0, 0, 0, 0, 0, 0, 0, 125, 0, 0, 0, 0, 0, 188, 0, 0, 0, 0,
|30, 0, 0, 0, 0, 0, 0, 0, 0, 0, 0, 0, 0, 0, 0, 0, 0, 0, 0, 0, 2, 0, 0, 0, 0, 0, 0, 0, 0, 0, 0, 0, 0, 0, 0, 0, 3, 1000, 0, 0, 0, 0, 0, 0, 0, 0, 0, 0, 125, 0, 250, 0, 0, 0, 0, 0, 0, 0, 0, 0, 0, 0, 0, 0, 0, 0, 0, 0, 0, 0, 0, 10, 0, 0, 0, 0, 0, 0, 0, 0, 0, 0, 0, 0, 0, 0, 0, 0, 0, 18, 0, 15, 0, 0,
|0, 0, 0, 0, 0, 0, 0, 0, 0, 0, 0, 0, 0, 0, 0, 0, 0, 0, 0, 0, 0, 0, 0, 0, 0, 0, 0, 0, 0, 0, 0, 0, 0, 0, 0, 0, 2, 500, 0, 0, 0, 0, 0, 0, 0, 0, 0, 0, 0, 0, 250, 0, 0, 0, 0, 0, 0, 0, 0, 0, 0, 0, 0, 0, 0, 0, 0, 0, 0, 0, 0, 0, 0, 125, 0, 0, 0, 0, 0, 0, 0, 0, 5, 0, 0, 0, 0, 0, 0, 312, 0, 0, 0, 0,
|0, 0, 0, 0, 0, 15, 0, 0, 0, 0, 0, 0, 0, 188, 0, 0, 0, 0, 0, 0, 0, 0, 0, 0, 0, 0, 0, 0, 0, 0, 0, 0, 0, 0, 0, 0, 5, 750, 0, 0, 0, 0, 0, 0, 0, 0, 0, 0, 0, 0, 250, 0, 0, 0, 0, 0, 0, 0, 0, 0, 0, 0, 0, 0, 0, 0, 0, 0, 0, 0, 0, 2, 0, 0, 0, 0, 0, 0, 0, 0, 0, 0, 5, 0, 0, 0, 0, 0, 0, 500, 0, 0, 0, 0,
|0, 0, 0, 0, 0, 0, 0, 0, 0, 0, 0, 0, 0, 0, 0, 0, 0, 0, 0, 0, 0, 0, 0, 0, 0, 0, 45, 0, 0, 0, 0, 0, 2, 0, 0, 0, 5, 62, 0, 0, 0, 0, 0, 0, 0, 0, 0, 0, 0, 0, 0, 0, 0, 0, 0, 0, 0, 0, 0, 0, 0, 0, 0, 0, 0, 0, 0, 0, 0, 0, 0, 0, 0, 0, 0, 0, 0, 312, 0, 0, 0, 0, 5, 0, 0, 0, 0, 0, 1, 250, 0, 0, 0, 0,
|0, 2, 0, 0, 0, 15, 0, 0, 0, 0, 0, 0, 0, 0, 0, 0, 0, 0, 0, 0, 0, 0, 0, 0, 5, 0, 0, 0, 0, 0, 0, 0, 0, 0, 0, 0, 1, 375, 0, 0, 0, 0, 0, 0, 0, 0, 0, 0, 0, 0, 188, 0, 0, 0, 0, 0, 0, 0, 0, 0, 0, 0, 0, 0, 0, 0, 0, 0, 0, 0, 0, 2, 0, 125, 0, 0, 0, 0, 0, 0, 0, 0, 8, 0, 0, 0, 0, 0, 0, 312, 0, 0, 0, 0,
|0, 0, 0, 0, 0, 0, 0, 0, 8, 0, 0, 750, 0, 0, 0, 0, 0, 0, 8, 0, 0, 0, 0, 0, 0, 0, 0, 0, 0, 0, 0, 0, 0, 0, 8, 0, 0, 0, 0, 8, 0, 0, 0, 0, 0, 0, 0, 0, 0, 0, 45, 0, 0, 0, 0, 0, 0, 8, 0, 0, 22, 0, 0, 0, 0, 0, 0, 0, 0, 0, 0, 0, 0, 0, 0, 0, 0, 0, 0, 0, 0, 0, 0, 30, 0, 0, 250, 0, 0, 30, 0, 11, 0, 0,
|0, 0, 0, 0, 0, 0, 0, 0, 0, 0, 0, 0, 0, 125, 0, 0, 0, 0, 0, 0, 0, 0, 0, 0, 0, 0, 0, 0, 0, 0, 0, 0, 0, 0, 0, 0, 6, 0, 0, 0, 0, 0, 0, 0, 4, 0, 0, 0, 0, 0, 0, 0, 0, 0, 0, 0, 0, 0, 0, 0, 0, 0, 0, 0, 0, 0, 0, 0, 0, 0, 0, 0, 0, 0, 0, 0, 0, 0, 0, 0, 0, 0, 0, 0, 0, 0, 0, 0, 0, 500, 0, 0, 0, 0,
|0, 0, 0, 0, 0, 0, 5, 0, 0, 0, 0, 0, 0, 125, 0, 0, 0, 0, 0, 0, 0, 0, 0, 0, 0, 0, 0, 0, 0, 0, 0, 0, 0, 1, 0, 0, 3, 500, 0, 0, 0, 0, 0, 0, 0, 0, 0, 0, 0, 0, 0, 0, 0, 0, 0, 0, 0, 0, 0, 0, 0, 0, 0, 0, 1, 0, 0, 0, 0, 0, 0, 2, 0, 0, 0, 0, 0, 1000, 0, 0, 0, 0, 5, 188, 0, 250, 0, 0, 0, 500, 0, 0, 0, 0,
|0, 0, 0, 0, 0, 0, 5, 0, 0, 0, 0, 0, 0, 750, 250, 0, 0, 0, 0, 0, 0, 0, 0, 12, 0, 0, 45, 0, 0, 0, 0, 0, 0, 2, 0, 0, 6, 750, 1, 0, 0, 0, 0, 0, 0, 0, 0, 0, 0, 0, 0, 0, 0, 0, 0, 0, 0, 0, 0, 0, 0, 0, 0, 0, 0, 0, 0, 0, 0, 0, 0, 2, 0, 0, 0, 0, 0, 0, 0, 0, 0, 0, 5, 0, 15, 0, 0, 0, 0, 750, 0, 0, 0, 0,
|0, 0, 0, 0, 0, 15, 5, 0, 0, 0, 0, 0, 0, 0, 500, 0, 0, 0, 0, 0, 0, 0, 0, 0, 0, 0, 0, 0, 0, 0, 0, 0, 0, 0, 0, 0, 0, 1250, 0, 0, 0, 0, 0, 0, 0, 0, 0, 0, 0, 0, 0, 0, 0, 0, 0, 0, 0, 0, 0, 0, 0, 0, 0, 0, 0, 0, 0, 0, 0, 0, 0, 10, 0, 188, 0, 0, 0, 0, 0, 0, 0, 0, 0, 0, 0, 0, 62, 0, 0, 45, 0, 1, 0, 0,
|0, 0, 0, 0, 0, 0, 2, 0, 0, 0, 0, 0, 0, 250, 0, 0, 0, 0, 0, 0, 0, 0, 0, 0, 5, 1, 0, 0, 0, 0, 0, 0, 0, 0, 0, 0, 3, 562, 0, 0, 0, 0, 0, 0, 0, 0, 0, 0, 0, 0, 0, 0, 0, 0, 2, 0, 0, 0, 0, 0, 0, 0, 0, 0, 0, 0, 0, 0, 0, 0, 0, 2, 0, 0, 0, 5, 0, 0, 0, 0, 0, 0, 5, 0, 0, 0, 0, 0, 0, 500, 0, 0, 250, 0,
|0, 260, 0, 0, 750, 0, 0, 0, 0, 0, 0, 0, 83, 60, 0, 0, 0, 0, 0, 0, 0, 0, 0, 0, 1, 0, 0, 0, 0, 0, 0, 0, 0, 0, 0, 0, 4, 0, 0, 0, 0, 0, 0, 0, 0, 0, 0, 0, 0, 0, 92, 0, 0, 0, 0, 0, 0, 0, 0, 0, 0, 0, 0, 0, 0, 0, 0, 0, 0, 0, 0, 0, 0, 0, 0, 0, 0, 417, 0, 0, 0, 0, 2, 0, 0, 0, 0, 0, 0, 83, 0, 0, 0, 0,
|0, 0, 0, 0, 0, 0, 0, 0, 0, 0, 0, 0, 0, 50, 0, 0, 0, 0, 0, 0, 0, 0, 0, 14, 0, 0, 0, 0, 0, 0, 0, 0, 0, 0, 0, 0, 4, 22, 0, 0, 0, 0, 0, 0, 0, 0, 0, 0, 0, 0, 0, 0, 0, 0, 0, 0, 0, 0, 0, 0, 0, 0, 0, 0, 0, 0, 0, 0, 0, 0, 0, 0, 0, 0, 0, 0, 0, 0, 0, 0, 0, 0, 0, 0, 0, 0, 5, 0, 0, 0, 0, 0, 0, 0,
|0, 0, 0, 0, 0, 0, 5, 0, 0, 0, 0, 0, 0, 0, 0, 0, 0, 0, 0, 0, 0, 1, 0, 0, 5, 0, 0, 0, 0, 0, 0, 0, 0, 0, 0, 0, 3, 500, 0, 0, 0, 0, 0, 0, 0, 0, 0, 0, 0, 0, 0, 0, 0, 0, 0, 0, 0, 0, 0, 0, 0, 0, 0, 0, 0, 0, 0, 0, 0, 0, 0, 5, 0, 0, 0, 0, 0, 0, 0, 0, 0, 0, 0, 250, 0, 250, 0, 0, 0, 375, 0, 0, 0, 0,
|0, 0, 0, 0, 0, 10, 10, 0, 0, 0, 0, 0, 0, 250, 0, 0, 0, 0, 0, 0, 0, 0, 0, 0, 10, 0, 0, 0, 0, 0, 0, 0, 0, 0, 0, 0, 4, 1000, 0, 0, 0, 0, 0, 0, 0, 0, 0, 0, 0, 0, 0, 0, 0, 0, 0, 0, 0, 0, 0, 0, 0, 0, 0, 0, 0, 0, 0, 0, 0, 0, 0, 0, 0, 0, 500, 0, 0, 0, 0, 0, 0, 0, 10, 0, 0, 250, 0, 0, 0, 625, 0, 0, 0, 0,
|0, 0, 0, 0, 0, 0, 0, 0, 0, 0, 0, 750, 0, 30, 0, 0, 0, 0, 0, 0, 0, 0, 0, 0, 0, 0, 0, 0, 0, 0, 0, 0, 0, 0, 0, 0, 0, 0, 0, 4, 0, 0, 0, 0, 0, 0, 0, 0, 0, 0, 30, 0, 83, 83, 0, 0, 0, 62, 0, 15, 0, 0, 0, 0, 0, 0, 0, 0, 0, 0, 0, 8, 125, 0, 0, 0, 0, 0, 0, 0, 0, 0, 0, 0, 0, 0, 344, 0, 0, 30, 0, 12, 0, 0,
|0, 0, 0, 0, 0, 1, 10, 0, 0, 0, 0, 0, 0, 0, 0, 0, 0, 0, 0, 0, 0, 0, 0, 0, 15, 0, 0, 0, 0, 0, 0, 0, 0, 0, 0, 0, 3, 500, 0, 0, 0, 0, 0, 0, 0, 0, 0, 0, 0, 0, 0, 0, 0, 0, 0, 0, 0, 0, 0, 0, 0, 0, 0, 0, 0, 0, 0, 0, 0, 0, 0, 5, 0, 0, 0, 0, 0, 0, 0, 0, 0, 0, 10, 250, 0, 250, 0, 0, 0, 375, 0, 0, 0, 500,
|0, 3, 0, 0, 0, 0, 0, 0, 0, 0, 0, 0, 0, 250, 0, 0, 0, 0, 0, 0, 0, 0, 0, 250, 0, 0, 0, 0, 0, 0, 0, 0, 0, 0, 0, 0, 4, 750, 0, 0, 0, 0, 0, 0, 0, 0, 0, 0, 0, 0, 0, 0, 0, 0, 0, 0, 0, 0, 0, 0, 0, 0, 0, 0, 0, 0, 0, 250, 0, 0, 0, 0, 0, 0, 0, 0, 0, 0, 0, 0, 0, 0, 0, 0, 0, 0, 0, 0, 0, 188, 0, 0, 0, 0,
|0, 0, 0, 0, 0, 0, 5, 0, 0, 0, 0, 0, 0, 83, 0, 0, 0, 0, 0, 0, 0, 0, 0, 0, 5, 2, 0, 0, 0, 0, 0, 0, 0, 0, 0, 0, 1, 375, 0, 0, 0, 0, 0, 0, 0, 0, 0, 0, 0, 0, 0, 0, 0, 0, 0, 0, 0, 0, 0, 0, 0, 0, 0, 0, 0, 0, 0, 250, 0, 0, 0, 2, 0, 0, 0, 0, 0, 0, 0, 0, 1, 0, 0, 0, 0, 0, 0, 0, 0, 250, 0, 0, 0, 0,
|0, 0, 0, 0, 0, 0, 5, 0, 0, 0, 0, 0, 0, 375, 125, 0, 0, 0, 0, 0, 0, 0, 0, 0, 0, 0, 92, 0, 250, 0, 0, 0, 0, 0, 0, 0, 2, 500, 0, 0, 0, 0, 0, 0, 0, 0, 0, 0, 0, 0, 192, 0, 0, 0, 0, 0, 0, 0, 0, 0, 0, 0, 0, 0, 0, 0, 0, 0, 0, 0, 0, 0, 0, 125, 0, 0, 0, 1375, 0, 0, 0, 0, 10, 0, 0, 0, 0, 0, 0, 500, 0, 0, 0, 0,
|0, 0, 0, 0, 0, 5, 0, 0, 0, 0, 0, 0, 0, 0, 0, 0, 0, 0, 0, 0, 0, 0, 0, 0, 0, 0, 0, 0, 0, 0, 0, 15, 0, 0, 0, 0, 2, 250, 0, 0, 0, 0, 0, 0, 0, 0, 0, 0, 0, 0, 0, 0, 0, 0, 0, 0, 0, 0, 0, 0, 0, 0, 0, 0, 0, 0, 0, 0, 0, 0, 0, 2, 0, 15, 0, 0, 0, 0, 0, 0, 0, 0, 0, 0, 0, 125, 0, 0, 0, 333, 0, 0, 0, 0,
|0, 438, 0, 0, 0, 0, 5, 0, 0, 0, 0, 0, 0, 0, 0, 0, 0, 0, 0, 0, 0, 0, 0, 0, 5, 0, 0, 0, 0, 0, 0, 0, 0, 0, 0, 0, 3, 500, 0, 0, 0, 0, 0, 0, 0, 0, 0, 0, 0, 0, 0, 0, 0, 0, 0, 0, 0, 0, 0, 0, 0, 0, 0, 0, 0, 0, 0, 0, 0, 0, 0, 5, 0, 0, 0, 0, 0, 0, 0, 0, 0, 0, 0, 250, 0, 0, 0, 0, 0, 375, 0, 0, 0, 0,
|0, 0, 0, 0, 0, 0, 10, 0, 0, 0, 0, 0, 0, 0, 0, 0, 0, 0, 0, 0, 0, 0, 0, 0, 5, 5, 0, 0, 0, 0, 0, 0, 0, 0, 0, 0, 2, 1000, 0, 0, 0, 0, 0, 0, 0, 0, 0, 0, 0, 0, 0, 0, 0, 0, 5, 0, 0, 0, 0, 0, 0, 0, 0, 0, 0, 0, 0, 500, 0, 0, 0, 2, 0, 250, 0, 5, 0, 0, 0, 0, 0, 0, 0, 0, 0, 250, 1000, 0, 0, 500, 0, 0, 0, 0,
|0, 0, 0, 0, 0, 5, 4, 0, 0, 0, 0, 0, 0, 0, 250, 0, 0, 0, 0, 0, 0, 0, 0, 0, 1, 1, 0, 0, 0, 0, 0, 0, 0, 0, 0, 0, 1, 500, 0, 0, 0, 0, 0, 0, 0, 0, 0, 0, 0, 0, 0, 0, 0, 0, 0, 0, 0, 0, 15, 0, 0, 0, 0, 0, 0, 0, 0, 250, 0, 0, 0, 1, 0, 125, 0, 1, 0, 1000, 0, 0, 0, 0, 5, 0, 0, 250, 0, 0, 60, 250, 0, 0, 0, 0,
|0, 0, 0, 0, 0, 0, 0, 0, 0, 0, 0, 0, 0, 0, 0, 1, 0, 0, 0, 0, 0, 0, 0, 0, 0, 0, 0, 0, 0, 0, 0, 0, 0, 0, 0, 0, 0, 0, 0, 0, 0, 0, 0, 0, 0, 0, 0, 0, 0, 0, 0, 0, 0, 0, 0, 0, 0, 0, 0, 0, 0, 0, 0, 0, 1, 1, 0, 0, 0, 0, 0, 0, 0, 0, 0, 0, 0, 0, 0, 0, 0, 1, 0, 0, 0, 0, 0, 0, 0, 0, 0, 0, 0, 0,
|0, 0, 0, 0, 0, 5, 5, 0, 0, 250, 0, 0, 0, 328, 250, 0, 0, 0, 0, 0, 0, 0, 0, 0, 5, 0, 5, 0, 0, 0, 0, 0, 0, 0, 0, 0, 2, 500, 0, 0, 0, 0, 0, 0, 0, 0, 0, 0, 0, 0, 280, 0, 0, 0, 0, 0, 0, 0, 0, 0, 0, 0, 0, 0, 0, 0, 0, 0, 0, 0, 0, 2, 0, 0, 0, 2, 0, 500, 0, 0, 0, 0, 2, 0, 0, 0, 0, 0, 0, 250, 0, 0, 0, 0,
|0, 0, 0, 0, 0, 0, 0, 0, 0, 0, 0, 0, 0, 0, 0, 0, 0, 0, 0, 0, 0, 0, 0, 0, 0, 0, 0, 0, 0, 0, 0, 0, 0, 16, 0, 0, 2, 0, 0, 0, 0, 1, 0, 0, 2, 0, 0, 0, 0, 0, 0, 0, 0, 0, 0, 0, 0, 0, 0, 0, 0, 0, 0, 0, 0, 0, 0, 0, 0, 0, 0, 0, 0, 0, 0, 0, 0, 0, 0, 0, 0, 0, 10, 0, 0, 0, 0, 0, 0, 188, 0, 0, 0, 0,
|0, 0, 0, 0, 0, 0, 5, 0, 0, 0, 0, 0, 188, 125, 0, 0, 0, 0, 0, 0, 0, 0, 0, 0, 5, 0, 0, 0, 0, 0, 0, 0, 0, 0, 0, 0, 2, 375, 0, 0, 0, 0, 0, 0, 0, 0, 0, 0, 0, 0, 0, 0, 0, 0, 0, 250, 0, 0, 0, 0, 0, 0, 0, 0, 0, 0, 0, 125, 0, 0, 0, 2, 0, 0, 0, 0, 0, 0, 0, 0, 0, 0, 5, 0, 0, 0, 312, 0, 0, 188, 0, 0, 0, 0,
|0, 0, 0, 0, 0, 10, 0, 0, 0, 0, 0, 0, 0, 188, 0, 0, 0, 2, 0, 0, 0, 0, 0, 0, 0, 0, 0, 0, 0, 0, 0, 0, 0, 0, 0, 0, 2, 625, 0, 0, 0, 0, 0, 0, 2, 0, 0, 0, 0, 0, 188, 0, 0, 0, 0, 0, 0, 0, 0, 0, 0, 0, 0, 0, 0, 0, 0, 125, 0, 0, 0, 0, 0, 0, 0, 0, 0, 0, 0, 0, 0, 0, 0, 0, 0, 0, 0, 0, 0, 250, 0, 0, 0, 0,
|0, 0, 0, 0, 0, 0, 0, 0, 0, 0, 0, 0, 0, 0, 0, 1, 0, 0, 0, 0, 0, 0, 0, 0, 0, 0, 0, 0, 0, 0, 0, 0, 0, 0, 0, 0, 0, 0, 6, 0, 0, 0, 0, 1, 1, 0, 0, 0, 0, 0, 0, 0, 0, 0, 0, 0, 0, 0, 0, 0, 0, 0, 0, 0, 0, 0, 0, 0, 0, 0, 0, 0, 0, 0, 0, 0, 0, 0, 0, 0, 0, 0, 0, 0, 0, 0, 0, 0, 500, 30, 0, 0, 0, 0,
|0, 0, 250, 0, 0, 0, 5, 0, 0, 0, 0, 0, 0, 0, 0, 0, 0, 0, 0, 312, 0, 0, 0, 0, 8, 0, 0, 0, 0, 0, 0, 0, 0, 0, 0, 0, 1, 375, 0, 0, 0, 0, 0, 0, 0, 0, 0, 0, 0, 0, 0, 0, 0, 0, 0, 0, 0, 0, 0, 0, 0, 0, 0, 0, 0, 0, 0, 250, 0, 0, 0, 2, 0, 0, 0, 2, 0, 0, 0, 0, 0, 0, 0, 83, 0, 0, 125, 0, 0, 167, 0, 0, 0, 0,
|0, 0, 0, 0, 0, 0, 0, 188, 0, 0, 0, 0, 0, 0, 0, 1, 0, 0, 0, 0, 0, 0, 0, 0, 0, 0, 0, 0, 0, 0, 0, 0, 0, 0, 0, 0, 4, 0, 0, 0, 0, 0, 0, 0, 0, 0, 0, 0, 0, 0, 30, 0, 0, 0, 0, 0, 0, 0, 0, 0, 0, 0, 0, 0, 0, 0, 0, 0, 0, 0, 0, 0, 0, 0, 0, 0, 0, 500, 0, 0, 0, 0, 1, 62, 0, 125, 250, 0, 0, 0, 0, 0, 0, 0,
|0, 0, 0, 0, 0, 0, 2, 0, 0, 0, 0, 0, 0, 0, 0, 0, 0, 0, 0, 0, 0, 0, 0, 0, 0, 0, 0, 0, 0, 0, 0, 0, 0, 0, 0, 0, 0, 0, 0, 0, 0, 0, 0, 0, 0, 0, 0, 0, 0, 0, 0, 0, 0, 0, 0, 0, 0, 0, 0, 0, 0, 0, 0, 0, 0, 0, 0, 0, 0, 0, 0, 2, 0, 0, 250, 0, 0, 0, 0, 0, 0, 0, 0, 0, 0, 0, 0, 0, 0, 45, 500, 0, 0, 0,
|0, 0, 0, 0, 0, 0, 10, 0, 0, 0, 0, 0, 0, 0, 0, 0, 0, 0, 0, 0, 0, 0, 0, 2, 0, 0, 60, 0, 0, 62, 0, 0, 0, 0, 0, 0, 2, 500, 0, 0, 0, 0, 0, 0, 0, 0, 0, 0, 0, 0, 125, 0, 0, 0, 0, 0, 0, 0, 0, 0, 0, 0, 0, 0, 0, 0, 0, 0, 0, 0, 0, 2, 0, 155, 375, 0, 0, 0, 0, 0, 0, 0, 10, 0, 0, 0, 62, 0, 0, 812, 0, 0, 0, 0,
|0, 0, 0, 0, 0, 0, 0, 0, 0, 0, 0, 6, 0, 30, 0, 0, 0, 0, 0, 0, 0, 0, 0, 0, 5, 0, 0, 0, 0, 0, 0, 0, 0, 0, 0, 0, 4, 0, 0, 0, 0, 0, 0, 0, 0, 0, 0, 0, 0, 0, 500, 0, 0, 0, 0, 0, 0, 0, 0, 0, 0, 0, 0, 0, 0, 0, 0, 125, 0, 0, 0, 0, 0, 0, 0, 0, 0, 0, 0, 0, 0, 0, 5, 0, 0, 0, 0, 0, 0, 188, 0, 0, 0, 0,
|0, 0, 0, 0, 0, 0, 0, 3, 0, 0, 0, 0, 0, 0, 0, 1, 0, 0, 0, 0, 0, 0, 0, 0, 0, 0, 0, 312, 0, 0, 0, 0, 0, 0, 0, 0, 0, 0, 0, 0, 0, 0, 0, 0, 0, 0, 0, 0, 0, 0, 0, 0, 0, 0, 0, 0, 0, 0, 0, 0, 0, 0, 0, 0, 1, 0, 0, 0, 0, 0, 0, 0, 0, 0, 0, 0, 0, 0, 0, 0, 0, 1, 1, 0, 0, 16, 0, 0, 0, 125, 0, 0, 0, 0,
|0, 0, 0, 0, 0, 0, 0, 0, 0, 0, 0, 0, 0, 0, 0, 1, 0, 0, 0, 0, 0, 0, 0, 0, 0, 0, 0, 0, 0, 0, 0, 0, 0, 0, 0, 0, 0, 0, 0, 0, 0, 0, 0, 0, 1, 0, 1, 0, 0, 0, 375, 0, 0, 0, 0, 0, 0, 0, 0, 0, 0, 0, 0, 0, 0, 0, 0, 0, 0, 0, 0, 0, 0, 0, 0, 0, 0, 0, 0, 0, 0, 0, 0, 0, 0, 0, 312, 4, 0, 0, 0, 0, 0, 0,
|0, 0, 0, 0, 0, 0, 0, 0, 0, 0, 0, 0, 0, 125, 0, 0, 0, 0, 0, 0, 0, 0, 0, 0, 0, 0, 0, 0, 0, 0, 0, 0, 0, 0, 0, 0, 0, 0, 0, 0, 0, 0, 0, 0, 0, 30, 0, 0, 0, 0, 0, 0, 0, 0, 0, 0, 0, 0, 0, 0, 0, 0, 0, 0, 0, 0, 0, 0, 0, 0, 0, 0, 0, 0, 0, 0, 0, 750, 0, 0, 0, 0, 2, 0, 0, 0, 0, 0, 0, 0, 0, 0, 0, 0,
|0, 0, 0, 0, 0, 0, 0, 0, 0, 0, 0, 0, 0, 0, 0, 1, 0, 0, 0, 0, 0, 0, 0, 2, 0, 0, 0, 0, 0, 0, 0, 0, 0, 0, 0, 0, 0, 0, 0, 0, 0, 0, 0, 0, 0, 0, 0, 0, 0, 0, 0, 0, 0, 0, 0, 0, 0, 0, 0, 0, 0, 0, 0, 0, 0, 0, 0, 0, 0, 0, 0, 0, 0, 0, 0, 0, 0, 0, 0, 0, 0, 1, 0, 0, 0, 0, 0, 0, 0, 0, 0, 0, 0, 0,
|0, 0, 0, 0, 0, 0, 0, 0, 0, 0, 0, 0, 0, 1, 0, 0, 0, 0, 0, 0, 0, 0, 0, 0, 0, 0, 0, 0, 0, 0, 0, 0, 0, 0, 0, 0, 4, 0, 0, 0, 0, 0, 0, 0, 0, 0, 0, 0, 0, 0, 0, 0, 0, 0, 0, 0, 0, 0, 0, 0, 0, 0, 0, 0, 0, 0, 0, 0, 0, 0, 0, 0, 0, 0, 0, 1, 0, 0, 0, 0, 0, 0, 0, 125, 0, 0, 250, 0, 0, 0, 0, 0, 0, 0,
|2, 0, 0, 62, 0, 2, 0, 0, 0, 0, 0, 0, 0, 0, 0, 0, 0, 0, 0, 0, 0, 0, 0, 0, 0, 0, 0, 0, 0, 0, 0, 0, 0, 0, 0, 0, 5, 312, 0, 0, 0, 0, 0, 0, 0, 0, 0, 0, 0, 0, 0, 0, 0, 0, 0, 0, 0, 0, 0, 0, 0, 0, 0, 0, 0, 0, 0, 0, 0, 0, 0, 2, 0, 0, 0, 0, 0, 0, 0, 0, 0, 0, 5, 0, 0, 0, 0, 0, 0, 312, 0, 0, 0, 0,
|5, 0, 0, 0, 0, 5, 2, 0, 0, 0, 0, 0, 0, 0, 390, 0, 0, 0, 0, 0, 0, 0, 0, 0, 0, 0, 0, 0, 0, 0, 0, 0, 0, 0, 0, 0, 4, 688, 0, 0, 0, 0, 0, 0, 0, 0, 0, 0, 0, 0, 0, 0, 0, 0, 0, 0, 0, 0, 0, 0, 0, 0, 0, 0, 0, 0, 0, 0, 0, 0, 0, 2, 0, 188, 0, 0, 0, 0, 0, 0, 0, 0, 5, 0, 0, 0, 0, 0, 0, 375, 0, 0, 0, 0,
|0, 0, 0, 0, 0, 0, 0, 0, 0, 0, 0, 0, 0, 0, 0, 0, 0, 0, 0, 0, 0, 0, 0, 0, 0, 0, 0, 0, 0, 0, 30, 0, 0, 0, 0, 0, 0, 500, 0, 0, 0, 0, 0, 0, 0, 0, 0, 0, 0, 0, 0, 0, 0, 0, 0, 0, 15, 0, 0, 0, 0, 0, 0, 0, 0, 0, 0, 0, 0, 0, 0, 2, 0, 0, 0, 0, 0, 0, 0, 0, 0, 0, 0, 0, 0, 0, 188, 0, 0, 2, 0, 1, 0, 0,
|0, 0, 0, 0, 0, 0, 0, 0, 0, 0, 0, 0, 0, 188, 0, 0, 0, 0, 0, 0, 0, 0, 0, 0, 0, 0, 0, 0, 0, 0, 0, 0, 0, 0, 0, 0, 0, 0, 0, 0, 0, 0, 0, 0, 0, 0, 0, 0, 0, 0, 125, 0, 0, 0, 0, 0, 0, 0, 0, 0, 0, 0, 0, 0, 0, 0, 0, 0, 0, 0, 0, 0, 0, 0, 0, 0, 0, 0, 0, 0, 0, 0, 5, 0, 0, 0, 0, 0, 0, 125, 0, 0, 0, 0,
|0, 0, 0, 0, 0, 8, 5, 0, 0, 0, 0, 0, 0, 125, 0, 0, 0, 0, 0, 0, 0, 0, 0, 250, 5, 0, 0, 0, 0, 0, 0, 0, 0, 0, 0, 0, 2, 625, 0, 0, 0, 0, 0, 0, 0, 0, 0, 0, 0, 0, 0, 0, 0, 0, 0, 0, 0, 0, 0, 0, 0, 0, 0, 0, 0, 0, 0, 0, 0, 0, 0, 0, 0, 0, 250, 0, 0, 0, 0, 0, 0, 0, 5, 0, 0, 0, 0, 0, 0, 375, 0, 0, 0, 0,
|0, 0, 0, 0, 0, 0, 0, 0, 0, 0, 0, 0, 250, 125, 0, 0, 0, 0, 0, 0, 0, 0, 0, 0, 10, 0, 0, 0, 0, 0, 0, 0, 0, 0, 0, 24, 0, 0, 0, 0, 0, 0, 0, 0, 0, 0, 0, 0, 0, 0, 0, 0, 0, 0, 0, 0, 0, 0, 0, 0, 0, 0, 0, 0, 0, 0, 0, 0, 0, 0, 0, 0, 0, 0, 0, 0, 0, 0, 0, 0, 0, 0, 0, 0, 0, 125, 0, 0, 0, 62, 0, 0, 0, 0,
|0, 0, 0, 0, 0, 5, 0, 0, 0, 0, 0, 0, 0, 0, 0, 0, 0, 0, 0, 0, 0, 0, 0, 188, 0, 0, 0, 0, 0, 0, 0, 0, 1, 0, 0, 0, 6, 0, 0, 0, 0, 125, 0, 0, 0, 0, 0, 0, 0, 0, 0, 0, 0, 0, 0, 0, 0, 0, 0, 0, 0, 0, 0, 0, 0, 0, 0, 0, 0, 0, 0, 1, 0, 0, 0, 0, 0, 0, 0, 0, 0, 0, 2, 0, 0, 188, 0, 0, 0, 250, 0, 0, 0, 0,
|0, 0, 0, 0, 0, 0, 0, 0, 0, 0, 0, 0, 0, 125, 0, 0, 0, 0, 0, 0, 0, 0, 0, 0, 0, 0, 0, 0, 0, 0, 0, 0, 0, 0, 0, 0, 1, 0, 0, 0, 0, 0, 0, 0, 0, 0, 0, 0, 0, 0, 0, 0, 0, 0, 0, 0, 0, 0, 0, 0, 0, 0, 0, 0, 0, 0, 0, 0, 0, 0, 0, 0, 0, 0, 0, 0, 0, 250, 0, 0, 0, 0, 0, 0, 0, 0, 0, 0, 0, 0, 0, 0, 0, 0,
|0, 0, 0, 0, 0, 0, 0, 0, 0, 0, 0, 0, 125, 0, 0, 1, 0, 0, 0, 0, 0, 0, 0, 0, 15, 0, 0, 0, 0, 0, 0, 0, 0, 0, 0, 0, 4, 0, 0, 0, 0, 0, 0, 0, 0, 0, 0, 0, 0, 0, 0, 0, 0, 0, 0, 0, 0, 0, 0, 0, 0, 0, 250, 0, 0, 0, 0, 0, 0, 0, 0, 0, 0, 0, 250, 0, 0, 0, 0, 0, 0, 0, 5, 188, 0, 0, 0, 0, 0, 125, 0, 0, 0, 0,
|0, 0, 0, 0, 0, 0, 0, 0, 0, 0, 0, 0, 0, 250, 0, 0, 0, 0, 0, 0, 0, 0, 0, 18, 0, 0, 0, 0, 0, 0, 0, 0, 0, 0, 0, 0, 6, 0, 0, 0, 0, 0, 0, 0, 0, 0, 0, 0, 0, 0, 0, 0, 0, 0, 0, 0, 0, 0, 0, 0, 0, 0, 0, 0, 0, 0, 0, 0, 0, 0, 0, 251, 0, 0, 0, 0, 0, 0, 0, 0, 0, 0, 0, 0, 0, 0, 125, 0, 0, 188, 0, 0, 0, 0,
|0, 0, 0, 0, 0, 15, 0, 0, 0, 0, 0, 0, 0, 0, 0, 0, 0, 0, 0, 0, 0, 0, 0, 0, 0, 0, 0, 0, 0, 0, 0, 0, 0, 0, 0, 0, 8, 500, 0, 0, 0, 0, 0, 0, 0, 0, 0, 0, 0, 0, 312, 0, 0, 0, 0, 0, 0, 0, 0, 0, 0, 0, 0, 0, 0, 0, 0, 0, 0, 0, 0, 5, 0, 0, 0, 0, 0, 0, 0, 0, 0, 0, 0, 125, 0, 0, 0, 0, 0, 45, 0, 0, 0, 0,
|0, 4, 0, 0, 0, 0, 0, 0, 0, 0, 0, 0, 0, 0, 0, 1, 0, 0, 0, 0, 0, 0, 0, 0, 5, 0, 0, 125, 0, 0, 0, 0, 0, 0, 0, 0, 1, 0, 0, 0, 0, 0, 0, 0, 0, 0, 0, 0, 62, 0, 0, 0, 0, 0, 0, 0, 0, 0, 0, 0, 0, 0, 0, 0, 0, 0, 0, 0, 0, 0, 0, 0, 0, 0, 250, 0, 0, 0, 0, 0, 0, 0, 0, 0, 0, 0, 0, 0, 0, 125, 0, 0, 0, 0,
|1, 0, 0, 0, 0, 0, 0, 0, 0, 0, 0, 0, 0, 0, 0, 0, 0, 0, 0, 0, 0, 0, 0, 0, 0, 0, 0, 0, 0, 0, 0, 0, 0, 3, 0, 0, 5, 0, 0, 0, 0, 0, 0, 0, 0, 0, 0, 0, 0, 0, 0, 0, 0, 0, 0, 0, 0, 0, 0, 0, 0, 0, 0, 0, 0, 0, 0, 0, 0, 0, 0, 1, 0, 0, 250, 0, 0, 0, 0, 0, 0, 0, 1, 0, 0, 0, 0, 0, 0, 280, 0, 0, 0, 0,
|0, 0, 0, 0, 0, 0, 0, 0, 0, 0, 0, 0, 0, 0, 0, 1, 0, 0, 0, 0, 0, 0, 0, 0, 0, 0, 0, 2, 0, 0, 0, 0, 0, 0, 0, 0, 0, 0, 0, 0, 0, 0, 0, 0, 0, 0, 0, 0, 0, 0, 1, 0, 0, 0, 0, 0, 0, 0, 0, 0, 0, 0, 0, 0, 0, 0, 0, 0, 0, 0, 0, 0, 0, 0, 0, 0, 0, 0, 0, 0, 0, 1, 0, 0, 0, 0, 0, 0, 0, 0, 0, 0, 0, 0,
|0, 0, 0, 0, 0, 0, 0, 0, 0, 0, 0, 0, 0, 188, 0, 0, 14, 0, 0, 0, 0, 0, 0, 250, 0, 0, 0, 0, 0, 0, 0, 0, 0, 0, 0, 0, 0, 0, 0, 0, 0, 0, 0, 0, 0, 0, 0, 0, 0, 0, 1, 0, 0, 0, 0, 0, 0, 0, 0, 0, 0, 0, 0, 0, 0, 0, 0, 0, 0, 0, 0, 0, 0, 0, 0, 0, 0, 0, 0, 0, 0, 0, 0, 0, 0, 250, 0, 0, 0, 0, 0, 0, 0, 0,
|0, 1000, 0, 0, 0, 0, 10, 0, 0, 0, 0, 0, 0, 0, 0, 0, 0, 0, 0, 0, 0, 0, 0, 0, 10, 0, 0, 0, 0, 0, 0, 0, 0, 0, 0, 0, 2, 500, 0, 0, 0, 0, 0, 0, 0, 0, 0, 0, 0, 0, 0, 0, 0, 0, 5, 0, 0, 0, 0, 0, 0, 0, 0, 0, 0, 0, 0, 0, 0, 0, 0, 5, 0, 0, 0, 0, 0, 0, 0, 0, 0, 0, 0, 125, 0, 250, 0, 0, 0, 500, 0, 0, 0, 0,
|0, 0, 0, 0, 0, 0, 0, 0, 0, 0, 0, 0, 0, 125, 0, 1, 0, 0, 0, 0, 0, 1, 0, 0, 0, 0, 0, 0, 0, 0, 0, 0, 0, 0, 0, 0, 0, 0, 0, 0, 0, 0, 0, 0, 0, 0, 0, 0, 0, 0, 0, 0, 0, 0, 0, 0, 0, 0, 0, 0, 0, 0, 0, 0, 1, 0, 0, 0, 0, 0, 0, 0, 0, 0, 0, 0, 0, 0, 0, 0, 0, 0, 0, 0, 0, 8, 0, 0, 0, 0, 0, 0, 0, 0,
|0, 0, 0, 0, 0, 0, 0, 0, 0, 0, 0, 0, 0, 0, 0, 0, 0, 0, 0, 0, 0, 0, 0, 0, 0, 0, 0, 0, 0, 0, 15, 0, 0, 0, 0, 0, 0, 1000, 0, 5, 0, 0, 0, 0, 0, 0, 0, 0, 0, 0, 0, 0, 0, 0, 0, 0, 170, 0, 0, 0, 0, 0, 0, 0, 0, 0, 0, 0, 0, 0, 0, 15, 0, 0, 0, 0, 0, 0, 0, 0, 0, 0, 0, 0, 0, 0, 312, 0, 0, 15, 0, 15, 0, 0,
|0, 0, 0, 0, 0, 0, 5, 0, 0, 0, 0, 0, 250, 0, 0, 0, 0, 0, 0, 125, 0, 0, 0, 0, 5, 0, 0, 0, 0, 0, 0, 0, 0, 0, 0, 0, 2, 375, 0, 0, 0, 0, 0, 0, 0, 0, 0, 0, 0, 0, 0, 0, 0, 0, 0, 125, 0, 0, 0, 0, 0, 0, 0, 0, 0, 0, 0, 0, 0, 0, 0, 2, 0, 125, 0, 0, 0, 0, 0, 0, 0, 0, 0, 0, 0, 0, 375, 0, 0, 250, 0, 0, 0, 0,
|0, 7, 0, 0, 0, 0, 0, 0, 0, 0, 0, 0, 0, 250, 0, 0, 0, 0, 0, 0, 0, 0, 0, 0, 5, 0, 0, 0, 0, 0, 0, 0, 0, 0, 0, 0, 2, 500, 0, 0, 0, 0, 0, 0, 0, 0, 0, 0, 0, 0, 0, 0, 0, 0, 0, 0, 0, 0, 0, 0, 0, 0, 0, 0, 0, 0, 0, 0, 0, 0, 0, 5, 0, 0, 0, 0, 0, 0, 125, 0, 0, 0, 0, 0, 0, 0, 62, 0, 0, 192, 0, 1, 0, 0,
|0, 0, 0, 0, 0, 0, 0, 0, 0, 0, 0, 0, 0, 0, 0, 1, 0, 0, 0, 0, 0, 0, 0, 0, 0, 0, 0, 375, 0, 0, 0, 0, 0, 0, 0, 0, 3, 0, 0, 0, 0, 0, 0, 0, 250, 0, 0, 0, 0, 0, 375, 0, 0, 0, 0, 0, 0, 0, 0, 0, 0, 0, 188, 0, 0, 2, 0, 0, 0, 0, 0, 0, 0, 0, 0, 0, 0, 0, 0, 0, 0, 0, 0, 188, 0, 188, 0, 2, 0, 0, 0, 0, 0, 0,
|0, 0, 0, 0, 0, 0, 10, 0, 0, 0, 0, 0, 0, 0, 0, 0, 0, 0, 0, 0, 0, 0, 0, 0, 0, 0, 135, 0, 0, 0, 0, 0, 0, 0, 0, 0, 0, 750, 0, 0, 0, 0, 0, 0, 0, 0, 0, 0, 275, 0, 0, 0, 0, 0, 0, 0, 0, 0, 0, 0, 0, 0, 0, 0, 0, 0, 0, 0, 0, 0, 0, 8, 0, 0, 0, 0, 0, 1500, 0, 0, 0, 0, 10, 0, 30, 0, 590, 0, 0, 500, 0, 0, 0, 0,
|0, 0, 0, 0, 0, 0, 0, 0, 0, 0, 0, 0, 0, 0, 0, 0, 0, 0, 0, 0, 0, 0, 0, 2, 0, 0, 0, 0, 0, 125, 0, 0, 0, 0, 0, 0, 0, 0, 0, 0, 0, 0, 0, 0, 0, 0, 0, 0, 0, 0, 0, 0, 0, 0, 0, 0, 0, 0, 0, 0, 0, 0, 0, 0, 0, 0, 0, 0, 0, 0, 0, 5, 0, 250, 0, 0, 0, 0, 0, 0, 0, 0, 10, 0, 0, 0, 0, 0, 250, 1000, 0, 0, 0, 0,
|0, 0, 0, 0, 0, 0, 0, 0, 0, 0, 0, 0, 0, 0, 0, 0, 0, 0, 0, 0, 0, 0, 0, 1, 0, 0, 0, 0, 0, 0, 0, 0, 0, 0, 0, 0, 4, 500, 0, 0, 0, 0, 0, 0, 0, 0, 0, 0, 0, 0, 0, 0, 0, 0, 0, 0, 0, 0, 0, 0, 0, 0, 0, 0, 0, 0, 0, 0, 0, 0, 0, 0, 0, 0, 0, 0, 0, 0, 0, 0, 0, 0, 5, 500, 0, 0, 0, 0, 0, 16, 0, 0, 0, 0,
|0, 0, 0, 0, 0, 0, 0, 1, 0, 0, 0, 0, 0, 125, 0, 0, 0, 0, 0, 0, 0, 0, 0, 0, 0, 0, 0, 250, 0, 0, 0, 0, 0, 0, 0, 0, 0, 0, 0, 0, 0, 0, 0, 0, 0, 0, 0, 0, 0, 0, 0, 0, 0, 0, 0, 0, 0, 0, 0, 0, 0, 0, 250, 0, 0, 0, 0, 0, 0, 0, 0, 0, 0, 0, 0, 0, 0, 1000, 0, 0, 0, 0, 5, 0, 0, 0, 0, 0, 0, 0, 0, 0, 0, 0,
|0, 0, 0, 0, 0, 10, 0, 0, 0, 0, 0, 0, 0, 0, 0, 0, 0, 0, 0, 0, 0, 0, 0, 0, 0, 0, 0, 0, 0, 0, 375, 0, 0, 0, 0, 0, 0, 375, 0, 0, 0, 0, 0, 0, 0, 0, 0, 0, 0, 0, 0, 0, 0, 0, 0, 0, 0, 0, 0, 0, 0, 0, 0, 0, 0, 0, 0, 0, 0, 0, 0, 4, 0, 0, 0, 0, 0, 0, 0, 0, 0, 0, 0, 0, 0, 0, 250, 0, 0, 0, 0, 0, 0, 0,
|0, 0, 0, 0, 0, 0, 0, 0, 0, 0, 0, 0, 0, 0, 0, 1, 0, 0, 0, 0, 0, 0, 0, 0, 0, 0, 15, 0, 0, 0, 0, 0, 0, 1, 0, 0, 4, 0, 1, 0, 0, 0, 0, 0, 0, 0, 0, 0, 0, 0, 250, 0, 0, 0, 0, 0, 0, 0, 0, 0, 0, 0, 0, 0, 0, 0, 0, 0, 0, 0, 0, 0, 0, 0, 0, 0, 0, 0, 0, 0, 0, 1, 2, 125, 15, 0, 250, 0, 0, 0, 0, 0, 0, 0,
|0, 0, 0, 0, 0, 0, 0, 0, 0, 0, 0, 0, 0, 0, 0, 0, 0, 0, 0, 0, 0, 0, 0, 0, 0, 0, 0, 0, 0, 0, 0, 0, 0, 2, 0, 0, 125, 0, 0, 0, 0, 7, 0, 0, 0, 62, 0, 0, 0, 0, 1, 0, 0, 0, 0, 0, 0, 0, 0, 0, 0, 0, 0, 0, 0, 0, 0, 0, 0, 0, 0, 0, 0, 0, 0, 0, 0, 0, 0, 0, 0, 0, 0, 0, 0, 0, 0, 0, 0, 0, 0, 0, 0, 0,
|0, 0, 0, 0, 0, 0, 0, 0, 0, 0, 0, 0, 0, 0, 0, 0, 0, 0, 0, 0, 3, 0, 0, 0, 0, 0, 0, 0, 0, 0, 0, 0, 0, 0, 0, 0, 4, 0, 0, 0, 0, 0, 0, 0, 0, 0, 0, 0, 0, 0, 0, 0, 0, 0, 0, 0, 0, 0, 0, 0, 0, 0, 0, 0, 0, 0, 0, 0, 0, 0, 0, 0, 0, 0, 0, 0, 0, 0, 0, 0, 0, 0, 10, 0, 0, 0, 0, 0, 0, 250, 0, 0, 0, 0,
|0, 0, 0, 188, 0, 0, 0, 0, 0, 0, 0, 0, 0, 0, 0, 1, 0, 0, 0, 0, 0, 0, 0, 0, 0, 0, 0, 0, 0, 0, 0, 0, 0, 0, 0, 0, 4, 0, 0, 0, 0, 0, 0, 0, 5, 1, 0, 0, 0, 0, 0, 0, 0, 0, 0, 0, 0, 0, 0, 0, 0, 0, 0, 0, 0, 0, 0, 0, 0, 0, 0, 0, 0, 0, 0, 0, 0, 312, 0, 0, 0, 0, 5, 188, 0, 0, 0, 0, 0, 0, 0, 0, 0, 0,
|0, 0, 0, 0, 0, 2, 5, 0, 0, 0, 0, 0, 0, 0, 0, 0, 0, 0, 0, 0, 0, 0, 0, 0, 0, 0, 0, 0, 0, 0, 0, 0, 0, 0, 0, 0, 0, 250, 0, 0, 0, 0, 0, 0, 0, 0, 0, 0, 0, 0, 125, 0, 0, 0, 0, 0, 0, 0, 0, 0, 0, 0, 0, 250, 0, 0, 0, 125, 0, 0, 0, 2, 0, 0, 0, 0, 0, 0, 0, 0, 0, 0, 0, 0, 0, 125, 0, 0, 0, 188, 0, 0, 0, 0,
|0, 0, 0, 0, 0, 1, 0, 0, 0, 0, 0, 0, 0, 322, 0, 0, 0, 0, 0, 0, 0, 0, 0, 0, 0, 0, 0, 0, 0, 0, 0, 0, 0, 1, 0, 0, 14, 667, 0, 0, 0, 0, 0, 0, 0, 0, 0, 0, 0, 0, 0, 0, 0, 0, 0, 0, 0, 0, 0, 0, 0, 0, 0, 0, 0, 0, 0, 0, 0, 0, 0, 1, 0, 0, 0, 0, 0, 0, 0, 0, 0, 0, 0, 0, 0, 0, 0, 0, 0, 875, 0, 0, 0, 0,
|0, 0, 0, 0, 0, 0, 0, 4, 0, 0, 0, 0, 0, 0, 0, 0, 0, 0, 0, 0, 0, 0, 0, 0, 0, 0, 0, 0, 0, 0, 0, 0, 0, 0, 0, 0, 0, 0, 0, 0, 0, 500, 0, 0, 0, 0, 0, 0, 0, 1, 0, 0, 0, 0, 0, 0, 0, 0, 0, 0, 0, 0, 0, 0, 2, 0, 0, 0, 0, 0, 0, 0, 0, 0, 0, 0, 0, 0, 0, 0, 0, 0, 0, 0, 0, 62, 0, 0, 250, 0, 0, 0, 0, 0,
|62, 0, 0, 0, 0, 2, 1, 0, 0, 0, 0, 0, 45, 30, 0, 0, 0, 0, 0, 0, 0, 0, 0, 0, 0, 0, 0, 0, 0, 0, 0, 0, 0, 0, 0, 0, 1, 250, 0, 0, 0, 0, 0, 0, 0, 0, 0, 0, 0, 0, 5, 0, 0, 0, 0, 0, 0, 0, 0, 0, 0, 0, 0, 0, 0, 0, 0, 0, 0, 0, 0, 1, 0, 0, 125, 0, 0, 191, 0, 0, 0, 0, 6, 0, 0, 0, 0, 0, 0, 83, 0, 0, 0, 0,
|0, 0, 0, 0, 0, 0, 0, 0, 0, 0, 0, 0, 0, 0, 0, 1, 0, 0, 0, 0, 0, 0, 0, 250, 0, 0, 0, 0, 0, 0, 0, 0, 0, 0, 0, 0, 5, 0, 0, 0, 0, 0, 0, 0, 0, 0, 0, 0, 0, 0, 0, 0, 0, 0, 0, 0, 0, 0, 0, 0, 0, 0, 0, 0, 0, 0, 0, 0, 0, 0, 0, 0, 0, 188, 0, 0, 0, 750, 0, 0, 0, 0, 5, 83, 0, 0, 312, 0, 0, 0, 0, 0, 0, 0,
|0, 0, 0, 218, 0, 0, 0, 0, 0, 0, 0, 0, 62, 0, 0, 0, 0, 0, 0, 0, 0, 0, 0, 0, 0, 0, 0, 125, 0, 0, 0, 0, 0, 0, 0, 0, 4, 0, 0, 0, 0, 0, 0, 0, 5, 0, 0, 0, 0, 0, 0, 0, 0, 0, 0, 0, 0, 0, 0, 0, 0, 0, 0, 0, 0, 0, 0, 0, 0, 0, 0, 0, 0, 0, 0, 0, 0, 312, 0, 0, 0, 0, 0, 202, 0, 0, 0, 0, 0, 0, 0, 0, 0, 0,
|0, 0, 0, 0, 0, 0, 0, 0, 0, 0, 0, 0, 0, 0, 0, 0, 0, 0, 0, 0, 0, 0, 0, 0, 0, 0, 0, 250, 0, 0, 0, 0, 0, 0, 0, 0, 0, 0, 0, 0, 0, 0, 0, 0, 0, 0, 0, 0, 0, 0, 2, 0, 0, 0, 0, 0, 0, 0, 0, 0, 0, 0, 1000, 0, 0, 0, 0, 250, 0, 0, 0, 0, 0, 0, 0, 0, 0, 0, 0, 0, 0, 0, 5, 0, 0, 0, 0, 0, 0, 0, 0, 0, 0, 0,
|62, 0, 0, 0, 0, 0, 0, 0, 0, 0, 0, 0, 0, 90, 0, 0, 0, 0, 0, 0, 0, 0, 250, 0, 0, 0, 0, 0, 0, 0, 0, 0, 0, 0, 0, 0, 5, 250, 0, 0, 0, 0, 0, 0, 0, 0, 0, 0, 0, 0, 62, 0, 0, 0, 0, 0, 0, 0, 0, 0, 0, 625, 0, 0, 0, 0, 0, 0, 0, 0, 0, 91, 0, 0, 0, 0, 0, 30, 0, 0, 0, 0, 5, 0, 0, 0, 188, 0, 0, 0, 0, 0, 0, 0,
|0, 0, 0, 0, 0, 0, 0, 0, 0, 0, 5, 0, 0, 125, 0, 0, 0, 0, 0, 0, 0, 0, 0, 0, 0, 0, 0, 125, 0, 0, 0, 0, 0, 0, 0, 0, 8, 0, 0, 0, 0, 0, 0, 0, 0, 0, 0, 0, 0, 0, 0, 0, 0, 0, 0, 0, 0, 0, 0, 0, 0, 0, 250, 0, 0, 0, 0, 250, 0, 0, 0, 0, 0, 0, 0, 0, 0, 0, 0, 0, 0, 0, 0, 0, 0, 0, 125, 0, 0, 312, 0, 0, 0, 0,
|0, 0, 0, 0, 0, 0, 0, 0, 0, 0, 0, 750, 0, 0, 0, 0, 0, 0, 0, 0, 0, 0, 0, 0, 0, 0, 0, 0, 0, 0, 0, 0, 0, 0, 0, 0, 1, 0, 0, 0, 0, 0, 0, 0, 0, 0, 0, 0, 30, 0, 250, 0, 0, 0, 0, 0, 0, 0, 0, 0, 0, 0, 0, 0, 0, 0, 0, 0, 0, 0, 0, 4, 0, 0, 0, 0, 0, 0, 0, 0, 0, 0, 0, 0, 0, 0, 0, 0, 0, 83, 0, 12, 0, 0,
|0, 0, 0, 0, 0, 0, 0, 0, 0, 0, 0, 0, 0, 125, 0, 0, 0, 0, 0, 0, 0, 0, 0, 0, 0, 0, 0, 0, 0, 0, 0, 0, 0, 8, 0, 0, 0, 0, 0, 0, 0, 0, 0, 0, 0, 0, 0, 0, 0, 0, 0, 0, 0, 0, 0, 0, 0, 0, 0, 0, 0, 0, 0, 0, 0, 0, 0, 0, 0, 0, 0, 0, 0, 0, 0, 0, 0, 1000, 0, 0, 0, 0, 10, 0, 0, 0, 0, 0, 0, 0, 0, 0, 0, 0,
|0, 0, 0, 0, 0, 0, 5, 0, 0, 0, 0, 0, 0, 125, 0, 0, 0, 0, 0, 0, 0, 0, 0, 250, 2, 0, 62, 0, 0, 0, 0, 0, 0, 0, 0, 0, 2, 625, 0, 0, 0, 0, 0, 0, 0, 0, 0, 0, 0, 0, 125, 0, 0, 0, 0, 0, 0, 0, 0, 0, 0, 0, 0, 0, 0, 0, 0, 0, 0, 0, 0, 0, 0, 0, 0, 0, 0, 0, 0, 0, 0, 0, 5, 125, 0, 0, 0, 0, 0, 438, 0, 0, 0, 500,
|0, 0, 0, 0, 0, 15, 5, 0, 0, 0, 0, 0, 0, 530, 500, 0, 0, 0, 0, 0, 0, 0, 0, 0, 0, 0, 0, 0, 0, 0, 0, 0, 0, 0, 0, 0, 0, 1250, 0, 0, 0, 0, 0, 0, 0, 0, 0, 0, 0, 0, 0, 0, 0, 0, 0, 0, 0, 0, 0, 0, 0, 0, 0, 0, 0, 0, 0, 0, 0, 0, 0, 8, 0, 250, 0, 0, 0, 0, 0, 0, 0, 0, 0, 0, 0, 0, 62, 0, 0, 62, 0, 1, 0, 0,
|0, 0, 0, 0, 0, 0, 0, 0, 0, 0, 0, 0, 0, 0, 0, 1, 0, 0, 0, 0, 0, 0, 0, 0, 0, 0, 0, 188, 0, 0, 0, 0, 0, 0, 0, 0, 0, 0, 0, 0, 0, 0, 0, 0, 0, 0, 0, 0, 0, 0, 750, 0, 0, 0, 0, 0, 0, 0, 0, 0, 0, 0, 0, 0, 1, 0, 0, 0, 0, 0, 0, 0, 0, 0, 0, 0, 0, 250, 0, 0, 0, 0, 5, 0, 0, 0, 0, 0, 250, 188, 0, 0, 0, 0,
|0, 0, 0, 0, 0, 0, 5, 250, 0, 0, 0, 0, 0, 0, 0, 0, 0, 0, 0, 0, 0, 0, 0, 0, 0, 0, 0, 0, 0, 0, 0, 0, 0, 0, 0, 0, 2, 0, 0, 0, 0, 0, 125, 0, 0, 0, 0, 0, 0, 0, 0, 0, 0, 0, 0, 0, 0, 0, 0, 0, 0, 0, 0, 0, 0, 0, 0, 0, 0, 0, 0, 2, 0, 0, 0, 0, 0, 0, 0, 0, 0, 0, 5, 83, 0, 125, 62, 0, 0, 0, 438, 0, 0, 0,
|0, 0, 0, 0, 0, 0, 0, 0, 0, 0, 0, 0, 250, 0, 0, 1, 0, 0, 0, 0, 0, 0, 0, 0, 15, 0, 0, 0, 0, 0, 0, 0, 0, 0, 0, 0, 4, 0, 0, 0, 0, 0, 0, 0, 0, 0, 0, 0, 0, 0, 60, 0, 0, 0, 0, 0, 0, 0, 0, 0, 0, 0, 0, 0, 0, 0, 0, 0, 0, 0, 0, 0, 0, 0, 1, 0, 0, 750, 0, 0, 0, 0, 15, 188, 0, 0, 0, 0, 0, 0, 0, 0, 0, 0,
|0, 0, 0, 0, 0, 8, 0, 0, 0, 0, 0, 0, 0, 0, 0, 0, 0, 0, 0, 0, 0, 0, 0, 0, 0, 0, 0, 0, 0, 0, 0, 0, 0, 0, 0, 0, 5, 250, 0, 0, 0, 0, 0, 0, 5, 0, 0, 0, 0, 0, 0, 0, 0, 0, 0, 0, 0, 0, 0, 0, 0, 0, 0, 0, 0, 0, 0, 0, 0, 0, 0, 2, 0, 0, 0, 0, 0, 0, 0, 0, 0, 0, 5, 0, 0, 0, 75, 0, 0, 250, 0, 0, 0, 0,
|0, 0, 0, 0, 0, 0, 0, 0, 0, 0, 0, 0, 0, 0, 0, 1, 0, 0, 0, 0, 0, 0, 0, 0, 0, 0, 0, 0, 0, 0, 0, 0, 0, 0, 0, 0, 0, 0, 0, 0, 0, 0, 0, 0, 0, 0, 0, 0, 0, 750, 0, 0, 0, 0, 0, 0, 0, 0, 0, 0, 0, 0, 0, 0, 0, 0, 0, 0, 0, 1500, 0, 0, 0, 0, 0, 0, 0, 0, 0, 0, 0, 0, 0, 0, 0, 0, 0, 0, 0, 250, 0, 0, 0, 0,
|0, 0, 0, 0, 0, 0, 0, 0, 0, 0, 0, 0, 0, 90, 0, 0, 0, 0, 0, 0, 0, 0, 0, 0, 0, 0, 0, 0, 0, 0, 0, 15, 0, 24, 0, 0, 3, 0, 0, 0, 0, 375, 0, 0, 0, 0, 182, 167, 0, 0, 0, 0, 0, 0, 0, 0, 0, 0, 0, 0, 0, 0, 0, 0, 0, 0, 0, 0, 0, 0, 0, 0, 0, 0, 0, 0, 0, 0, 0, 0, 0, 0, 0, 0, 0, 0, 0, 0, 0, 250, 0, 0, 0, 0|];

qtes_disponibles = [0, 0, 0, 0, 10000, 10000, 10000, 0, 0, 0, 0, 0, 0, 1000, 0, 0, 0, 0, 0, 0, 0, 0, 0, 0, 0, 0, 0, 0, 0, 0, 0, 0, 0, 0, 0, 0, 12, 10000, 0, 250, 0, 600, 10000, 0, 0, 0, 0, 0, 0, 0, 2000, 0, 0, 500, 0, 0, 0, 10, 5, 150, 0, 0, 0, 0, 0, 0, 0, 0, 0, 0, 0, 10000, 450, 0, 0, 0, 0, 10000, 0, 0, 0, 0, 0, 0, 0, 0, 10000, 0, 0, 0, 0, 0, 0, 0];

peremptions = [0, 0, 0, 0, 10000, 10000, 10000, 0, 0, 0, 0, 0, 0, 60, 0, 0, 0, 0, 0, 0, 0, 0, 0, 0, 0, 0, 0, 0, 0, 0, 0, 0, 0, 0, 0, 0, 14, 10000, 0, 20, 0, 10, 10000, 0, 0, 0, 0, 0, 0, 0, 8, 0, 0, 20, 0, 0, 0, 20, 10, 21, 0, 0, 0, 0, 0, 0, 0, 0, 0, 0, 0, 10000, 4, 0, 0, 0, 0, 10000, 0, 0, 0, 0, 0, 0, 0, 0, 10000, 0, 0, 0, 0, 0, 0, 0];


% Noms des recettes:
% ['Banana Split Cake II Recipe ', 'Golden Sponge Cake Recipe ', 'Robert Redford Cake Recipe ', 'Mississippi Mud Cake II Recipe ', 'Gingerbread I Recipe ', 'Old Fashioned Prune Cake Recipe ', 'Lane Cake Recipe ', 'Soda Pop Strawberry Angel Food Cake Recipe ', 'Praline Cheesecake Recipe ', 'Oatmeal Bread II Recipe ', 'Apple Chiffon Cake Recipe ', 'Fondue Bread Recipe ', 'Thirty Minute Yellow Cake Recipe ', 'Bridal Shower Cake Recipe ', 'Chocolate Roll I Recipe ', 'Dutch Apple Cake Recipe ', 'Garlic and Herb Bread Recipe ', 'Lemon Jelly Filling Recipe ', 'Pineapple Cake III Recipe ', 'Red Velvet Cake IV Recipe ', 'Angel Biscuits II Recipe ', 'Spiced Yogurt Pound Cake Recipe ', "'Webb''s Cake Recipe '", 'Great Chocolate Cake Recipe ', 'Pie Cake Recipe ', 'Streusel Coffee Cake Recipe ', 'Pepperoni Pizza Bread Recipe ', 'Zucchini Cake II Recipe ', 'Easy Plain Cake Recipe ', 'Tomato Soup Cake I Recipe ', 'Texas Sheet Cake IV Recipe ', 'Saucy Cherry Cake Recipe ', 'Pie Snacking Cake Recipe ', 'Spanish Bar Cake Recipe ', 'Treasure Chest Cake Recipe ', 'Green Cake Recipe ', 'Blackberry Jam Cake I Recipe ', 'Creamy Cheesecake Recipe ', 'Oatmeal Cake II Recipe ', 'Icelandic Christmas Cake Recipe ', 'Lemonade Cake I Recipe ', 'Muesli', 'Banana Pudding Cake Recipe ', 'Eggless Whole Wheat Muffins Recipe ', 'Sour Cream Chocolate Cake Recipe ', 'Bread Pudding II Recipe ', 'Better Than Sex Cake III Recipe ', "'Gramma''s Party Cake Recipe '", 'Lemon Icing Recipe ', 'Chocolate Pudding Cake I Recipe ', 'Butterscotch Spice Cake Recipe ', 'Apricot Sponge Cake Recipe ', "'Auntie''s Buttermilk Cake Recipe '", 'Grill Dough Recipe ', 'Buttery Milk Syrup Recipe ', 'Chocolate Chip Coffee Cake Recipe ', 'Quick and Easy Monkey Bread Recipe ', 'Chocolate Graham Nut Cake Recipe ', 'Foamy Butter Sauce Recipe ', 'Sock it to Me Cake I Recipe ', 'Flourless Chocolate Cake I Recipe ', 'Deluxe Waffles Recipe ', 'Apple Kuchen Recipe ', 'One', 'Coconut Poke Cake Recipe ', 'Chocolate Caramel Nut Cake Recipe ', 'Apple, Carrot, Or Zucchini Cake Recipe ', 'Dump Cake I Recipe ', 'Kalamata Olive and Garlic Bread Recipe ', 'Fabulous Oatmeal', "'Aunt Lydia''s Apple Cake Recipe '", 'Watergate Cake II Recipe ', 'Wacky Cake III Recipe ', "'Joan''s Fudge Icing Recipe '", 'Rich and Chocolaty Syrup Cake Recipe ', 'Banana Nut Frosting Recipe ', "'Granny''s Corn Flour Tortillas Recipe '", 'Red Velvet Cake III Recipe ', "'Peter''s Cheesecake Recipe '", 'Good For You Cheesecake Recipe ', 'Nectar Kake Recipe ', 'Persimmon Pudding Cake Recipe ', 'Cream Cheese Pound Cake II Recipe ', 'Ice Box Cake II Recipe ', 'Raspberry Almond Coffeecake Recipe ', "'Cookies ''n Cream Cake Recipe '", 'Lemon Coconut Apricot Cake Recipe ', 'No Bake Fruitcake Recipe ', 'Paris', 'Lane Cake Filling Recipe ', 'Portuguese Sweet Bread I Recipe ', 'Basic Cream Cheese Frosting Recipe ', 'Chocolate Zucchini Cake II Recipe ', 'Angel Biscuit Rolls Recipe ', 'Better Than Brad Pitt Cake Recipe ', 'Whole Wheat Banana Nut Bread Recipe ', 'Honey Bun Cake I Recipe ', 'Sunshine Cake Recipe ', 'Rhubarb Upside Down Cake I Recipe ', 'Key Lime Cheesecake I Recipe ']

% Noms des moments:
% ['breakfast', 'lunch', 'dinner']

moments = [|0, 1, 0,
|1, 1, 1,
|0, 1, 1,
|1, 1, 1,
|0, 1, 0,
|1, 1, 0,
|0, 1, 1,
|1, 1, 0,
|0, 1, 0,
|0, 1, 0,
|0, 1, 0,
|0, 1, 1,
|0, 1, 1,
|1, 1, 0,
|0, 1, 1,
|0, 1, 0,
|1, 1, 0,
|1, 1, 1,
|1, 1, 1,
|1, 1, 1,
|1, 1, 0,
|0, 1, 0,
|0, 1, 0,
|0, 1, 0,
|1, 1, 1,
|1, 1, 0,
|0, 1, 0,
|1, 1, 0,
|0, 1, 0,
|0, 1, 0,
|0, 1, 0,
|1, 1, 1,
|1, 1, 0,
|0, 1, 0,
|0, 1, 0,
|0, 1, 0,
|0, 1, 1,
|1, 1, 0,
|0, 1, 0,
|0, 1, 0,
|1, 1, 0,
|1, 1, 0,
|0, 1, 0,
|0, 1, 0,
|0, 1, 0,
|1, 1, 1,
|0, 1, 0,
|1, 1, 1,
|0, 1, 0,
|0, 1, 1,
|0, 1, 0,
|0, 1, 0,
|1, 1, 1,
|0, 1, 0,
|1, 1, 0,
|1, 1, 0,
|1, 1, 0,
|0, 1, 0,
|0, 1, 0,
|0, 1, 0,
|0, 1, 1,
|1, 1, 0,
|1, 1, 0,
|1, 1, 0,
|0, 1, 0,
|0, 1, 0,
|1, 1, 0,
|0, 1, 0,
|1, 1, 1,
|0, 1, 1,
|1, 1, 0,
|1, 1, 1,
|1, 1, 0,
|1, 1, 1,
|1, 1, 0,
|0, 1, 0,
|0, 1, 0,
|0, 1, 0,
|0, 1, 1,
|1, 1, 1,
|1, 1, 1,
|0, 1, 0,
|0, 1, 0,
|0, 1, 1,
|0, 1, 0,
|0, 1, 0,
|1, 1, 1,
|0, 1, 0,
|1, 1, 0,
|0, 1, 0,
|1, 1, 0,
|0, 1, 0,
|0, 1, 0,
|1, 1, 0,
|0, 1, 1,
|1, 1, 0,
|1, 1, 0,
|0, 1, 0,
|0, 1, 0,
|0, 1, 0|];


% Noms des nationalites:
% ('american', 'mexican', 'french', 'canadian', 'japanese', 'chinese', 'korean', 'portuguese', 'spanish', 'polish')

nationalites = [|1, 0, 0, 0, 1, 0, 0, 0, 0, 0,
|1, 0, 0, 1, 1, 0, 0, 0, 0, 0,
|1, 0, 0, 0, 1, 0, 0, 0, 0, 0,
|1, 0, 0, 0, 1, 0, 0, 0, 0, 0,
|1, 0, 1, 0, 1, 0, 0, 0, 0, 1,
|0, 0, 0, 0, 1, 0, 0, 0, 0, 0,
|1, 0, 0, 0, 0, 0, 0, 0, 0, 0,
|0, 0, 0, 0, 1, 0, 0, 0, 0, 0,
|1, 0, 1, 0, 1, 0, 0, 0, 0, 0,
|0, 0, 0, 0, 1, 0, 0, 0, 0, 0,
|1, 0, 0, 0, 1, 0, 0, 0, 0, 0,
|1, 0, 1, 0, 0, 0, 0, 0, 0, 0,
|0, 0, 0, 0, 1, 0, 0, 0, 0, 0,
|0, 0, 0, 0, 1, 0, 0, 0, 0, 0,
|0, 0, 1, 0, 1, 0, 0, 0, 0, 0,
|0, 0, 0, 0, 1, 0, 0, 0, 0, 1,
|0, 0, 1, 0, 1, 1, 0, 0, 0, 0,
|1, 0, 0, 0, 1, 0, 0, 0, 0, 0,
|1, 0, 0, 0, 1, 0, 0, 0, 0, 0,
|0, 0, 0, 0, 1, 0, 0, 0, 0, 0,
|0, 0, 0, 0, 1, 0, 0, 0, 0, 0,
|1, 0, 0, 0, 1, 0, 0, 0, 0, 0,
|0, 0, 0, 0, 1, 0, 0, 0, 0, 0,
|1, 0, 0, 0, 1, 0, 0, 0, 0, 0,
|1, 0, 1, 0, 1, 0, 0, 0, 0, 0,
|1, 0, 0, 0, 1, 0, 0, 0, 0, 0,
|0, 0, 1, 0, 1, 0, 0, 0, 0, 0,
|0, 0, 0, 0, 1, 0, 0, 0, 0, 0,
|0, 0, 0, 0, 1, 0, 0, 0, 0, 0,
|1, 0, 0, 0, 1, 0, 0, 0, 0, 0,
|1, 0, 0, 0, 1, 0, 0, 0, 0, 0,
|0, 0, 0, 0, 1, 0, 0, 0, 0, 0,
|0, 0, 0, 0, 1, 0, 1, 0, 0, 0,
|0, 0, 0, 0, 0, 0, 0, 0, 1, 0,
|0, 0, 0, 0, 1, 0, 0, 0, 0, 0,
|1, 0, 0, 1, 1, 1, 0, 0, 1, 0,
|1, 0, 0, 0, 1, 0, 0, 0, 0, 0,
|0, 0, 1, 0, 1, 0, 0, 0, 0, 0,
|0, 0, 0, 0, 1, 0, 0, 0, 0, 0,
|0, 0, 0, 1, 1, 0, 0, 0, 0, 0,
|1, 0, 0, 0, 1, 0, 0, 0, 0, 0,
|0, 0, 0, 0, 1, 0, 0, 0, 0, 0,
|1, 0, 0, 0, 1, 0, 0, 0, 0, 0,
|1, 0, 0, 0, 1, 0, 0, 0, 0, 0,
|1, 0, 0, 1, 1, 0, 0, 0, 0, 0,
|0, 1, 1, 0, 0, 0, 0, 0, 0, 0,
|1, 0, 0, 0, 1, 0, 0, 0, 0, 0,
|0, 0, 0, 0, 1, 0, 0, 0, 0, 1,
|1, 0, 0, 0, 1, 0, 0, 0, 0, 0,
|1, 0, 0, 0, 1, 0, 0, 0, 0, 0,
|0, 0, 1, 0, 1, 0, 0, 0, 0, 0,
|0, 0, 0, 0, 1, 0, 0, 0, 0, 0,
|0, 0, 0, 0, 1, 0, 0, 0, 0, 0,
|1, 0, 0, 0, 1, 0, 0, 0, 1, 1,
|1, 0, 1, 0, 1, 0, 0, 0, 0, 0,
|1, 0, 0, 0, 1, 0, 0, 0, 0, 0,
|1, 0, 0, 0, 1, 0, 0, 0, 0, 0,
|0, 0, 0, 0, 1, 0, 0, 0, 0, 0,
|0, 0, 1, 1, 1, 1, 0, 0, 0, 0,
|1, 0, 0, 0, 1, 0, 0, 0, 0, 0,
|0, 0, 0, 0, 1, 0, 0, 0, 0, 0,
|1, 0, 0, 0, 1, 0, 0, 0, 0, 0,
|0, 0, 0, 0, 1, 0, 0, 0, 0, 0,
|1, 0, 0, 1, 1, 0, 0, 0, 0, 0,
|1, 0, 0, 0, 1, 0, 0, 0, 0, 0,
|1, 0, 0, 0, 1, 0, 0, 0, 0, 0,
|0, 0, 0, 0, 1, 0, 0, 0, 0, 0,
|0, 0, 0, 0, 1, 0, 0, 0, 0, 0,
|0, 0, 0, 0, 1, 0, 0, 0, 0, 0,
|1, 0, 0, 0, 1, 0, 0, 0, 0, 0,
|0, 0, 0, 0, 1, 0, 0, 0, 0, 0,
|0, 0, 0, 0, 1, 0, 0, 0, 0, 0,
|0, 1, 0, 0, 1, 0, 0, 0, 0, 0,
|0, 0, 0, 0, 1, 0, 0, 0, 0, 0,
|0, 0, 0, 0, 1, 0, 0, 0, 0, 0,
|1, 0, 0, 0, 1, 0, 0, 0, 0, 0,
|0, 1, 0, 0, 1, 0, 0, 0, 0, 0,
|1, 0, 0, 0, 1, 0, 0, 0, 0, 0,
|0, 0, 1, 0, 1, 0, 0, 0, 0, 0,
|0, 0, 0, 0, 1, 0, 0, 0, 0, 0,
|1, 0, 0, 0, 1, 0, 0, 0, 0, 0,
|1, 0, 0, 0, 1, 1, 0, 0, 0, 0,
|0, 0, 0, 0, 1, 0, 0, 0, 0, 0,
|1, 0, 0, 0, 1, 0, 0, 0, 0, 0,
|0, 0, 0, 1, 1, 0, 0, 0, 0, 0,
|0, 0, 0, 0, 1, 0, 0, 0, 0, 0,
|0, 0, 0, 0, 1, 0, 0, 0, 0, 0,
|1, 0, 0, 1, 1, 0, 0, 0, 0, 0,
|1, 0, 1, 0, 0, 0, 0, 0, 0, 0,
|1, 0, 0, 1, 1, 0, 0, 0, 0, 0,
|0, 0, 0, 0, 0, 0, 0, 1, 0, 0,
|0, 0, 0, 1, 1, 0, 0, 0, 0, 0,
|0, 0, 0, 0, 1, 0, 0, 0, 0, 0,
|0, 0, 1, 0, 1, 0, 0, 0, 0, 0,
|0, 0, 0, 0, 1, 0, 0, 0, 0, 0,
|0, 0, 0, 0, 1, 0, 0, 0, 0, 0,
|0, 0, 0, 0, 1, 0, 0, 0, 0, 0,
|1, 0, 1, 0, 1, 0, 0, 0, 0, 0,
|0, 0, 0, 0, 1, 0, 0, 0, 0, 0,
|1, 0, 0, 0, 1, 0, 0, 0, 0, 0|];

preferences_nationalites = [0, 0, 0, 0, 0, 0, 0, 0, 0, 0];

